row=8;
Board=[|8,3,-1,2,0,9,6,5,4,-1|-1,6,-1,-1,-1,8,4,9,2,-1|-1,-1,1,6,-1,-1,-1,5,4,-1|9,-1,-1,3,-1,-1,-1,2,0,-1|0,-1,-1,-1,-1,4,5,-1,6,-1|8,7,5,-1,-1,3,-1,4,-1,0|-1,2,0,7,-1,6,8,5,1,3|-1,6,5,-1,-1,-1,2,-1,0,-1|];
bottom=[39,39,24,45,31,42,40,41,19,40]